" Example from Truss Topology Design: computes the optimal Design for a Truss with 14 Nodes and 27 bars of three possible sizes with piezo actuators as active elements
* Properties of this truss:    free nodes: 12,   fixed nodes: 2,   bars: 27
* active: 1, vibrat: 0, disbar: 1, intbar: 0, maxact: 4, scenar: 1
* nodcon: 0, nodvol: 0.1, nodobj: 0.0, actobj: 10.0, volume: 1, desvar: 1, lapine: 0, nodstb: 0, what kind of bars: maxdist1node
* maxvol: 12.0, kappa: 200.0, actStr: 0.16, fBlock: 35.0, densit: 1.0, mineig: 10.0
136 = number of variables
2 = number of blocks
25 -355 = blocksizes (negative sign for LP-block, size of LP-block equals the number of LP-constraints)
* the next line gives the objective values in the order of the variables
0.0 750.0 1500.0 2250.0 750.41655099 1500.83310198 2251.24965297 750.0 1500.0 2250.0 750.41655099 1500.83310198 2251.24965297 750.41655099 1500.83310198 2251.24965297 750.0 1500.0 2250.0 750.41655099 1500.83310198 2251.24965297 750.41655099 1500.83310198 2251.24965297 750.0 1500.0 2250.0 750.41655099 1500.83310198 2251.24965297 750.41655099 1500.83310198 2251.24965297 750.41655099 1500.83310198 2251.24965297 750.0 1500.0 2250.0 750.41655099 1500.83310198 2251.24965297 750.0 1500.0 2250.0 750.41655099 1500.83310198 2251.24965297 750.41655099 1500.83310198 2251.24965297 750.0 1500.0 2250.0 750.41655099 1500.83310198 2251.24965297 750.41655099 1500.83310198 2251.24965297 750.41655099 1500.83310198 2251.24965297 750.0 1500.0 2250.0 750.41655099 1500.83310198 2251.24965297 750.0 1500.0 2250.0 750.41655099 1500.83310198 2251.24965297 750.41655099 1500.83310198 2251.24965297 750.41655099 1500.83310198 2251.24965297 0.0 0.0 0.0 0.0 0.0 0.0 0.0 0.0 0.0 0.0 0.0 0.0 0.0 0.0 0.0 0.0 0.0 0.0 0.0 0.0 0.0 0.0 0.0 0.0 0.0 0.0 0.0 10.0 10.0 10.0 10.0 10.0 10.0 10.0 10.0 10.0 10.0 10.0 10.0 10.0 10.0 10.0 10.0 10.0 10.0 10.0 10.0 10.0 10.0 10.0 10.0 10.0 10.0 10.0 
* the remaining lines give the nonzeroes of the constraints with variable (0 meaning the constant part) block row column value
0 1 1 2 -22.0
0 1 1 3 220.0
0 1 1 11 220.0
1 1 1 1 2
2 1 2 2 6.66666666667
2 1 2 4 -6.66666666667
2 1 4 4 6.66666666667
3 1 2 2 13.3333333333
3 1 2 4 -13.3333333333
3 1 4 4 13.3333333333
4 1 2 2 20.0
4 1 2 4 -20.0
4 1 4 4 20.0
5 1 2 2 1.66389274192
5 1 2 3 -2.88408075266
5 1 2 12 -1.66389274192
5 1 2 13 2.88408075266
5 1 3 3 4.99907330461
5 1 3 12 2.88408075266
5 1 3 13 -4.99907330461
5 1 12 12 1.66389274192
5 1 12 13 -2.88408075266
5 1 13 13 4.99907330461
6 1 2 2 3.32778548384
6 1 2 3 -5.76816150532
6 1 2 12 -3.32778548384
6 1 2 13 5.76816150532
6 1 3 3 9.99814660922
6 1 3 12 5.76816150532
6 1 3 13 -9.99814660922
6 1 12 12 3.32778548384
6 1 12 13 -5.76816150532
6 1 13 13 9.99814660922
7 1 2 2 4.99167822576
7 1 2 3 -8.65224225798
7 1 2 12 -4.99167822576
7 1 2 13 8.65224225798
7 1 3 3 14.9972199138
7 1 3 12 8.65224225798
7 1 3 13 -14.9972199138
7 1 12 12 4.99167822576
7 1 12 13 -8.65224225798
7 1 13 13 14.9972199138
8 1 4 4 6.66666666667
8 1 4 6 -6.66666666667
8 1 6 6 6.66666666667
9 1 4 4 13.3333333333
9 1 4 6 -13.3333333333
9 1 6 6 13.3333333333
10 1 4 4 20.0
10 1 4 6 -20.0
10 1 6 6 20.0
11 1 4 4 1.66389274192
11 1 4 5 2.88408075266
11 1 4 12 -1.66389274192
11 1 4 13 -2.88408075266
11 1 5 5 4.99907330461
11 1 5 12 -2.88408075266
11 1 5 13 -4.99907330461
11 1 12 12 1.66389274192
11 1 12 13 2.88408075266
11 1 13 13 4.99907330461
12 1 4 4 3.32778548384
12 1 4 5 5.76816150532
12 1 4 12 -3.32778548384
12 1 4 13 -5.76816150532
12 1 5 5 9.99814660922
12 1 5 12 -5.76816150532
12 1 5 13 -9.99814660922
12 1 12 12 3.32778548384
12 1 12 13 5.76816150532
12 1 13 13 9.99814660922
13 1 4 4 4.99167822576
13 1 4 5 8.65224225798
13 1 4 12 -4.99167822576
13 1 4 13 -8.65224225798
13 1 5 5 14.9972199138
13 1 5 12 -8.65224225798
13 1 5 13 -14.9972199138
13 1 12 12 4.99167822576
13 1 12 13 8.65224225798
13 1 13 13 14.9972199138
14 1 4 4 1.66389274192
14 1 4 5 -2.88408075266
14 1 4 14 -1.66389274192
14 1 4 15 2.88408075266
14 1 5 5 4.99907330461
14 1 5 14 2.88408075266
14 1 5 15 -4.99907330461
14 1 14 14 1.66389274192
14 1 14 15 -2.88408075266
14 1 15 15 4.99907330461
15 1 4 4 3.32778548384
15 1 4 5 -5.76816150532
15 1 4 14 -3.32778548384
15 1 4 15 5.76816150532
15 1 5 5 9.99814660922
15 1 5 14 5.76816150532
15 1 5 15 -9.99814660922
15 1 14 14 3.32778548384
15 1 14 15 -5.76816150532
15 1 15 15 9.99814660922
16 1 4 4 4.99167822576
16 1 4 5 -8.65224225798
16 1 4 14 -4.99167822576
16 1 4 15 8.65224225798
16 1 5 5 14.9972199138
16 1 5 14 8.65224225798
16 1 5 15 -14.9972199138
16 1 14 14 4.99167822576
16 1 14 15 -8.65224225798
16 1 15 15 14.9972199138
17 1 6 6 6.66666666667
17 1 6 8 -6.66666666667
17 1 8 8 6.66666666667
18 1 6 6 13.3333333333
18 1 6 8 -13.3333333333
18 1 8 8 13.3333333333
19 1 6 6 20.0
19 1 6 8 -20.0
19 1 8 8 20.0
20 1 6 6 1.66389274192
20 1 6 7 2.88408075266
20 1 6 14 -1.66389274192
20 1 6 15 -2.88408075266
20 1 7 7 4.99907330461
20 1 7 14 -2.88408075266
20 1 7 15 -4.99907330461
20 1 14 14 1.66389274192
20 1 14 15 2.88408075266
20 1 15 15 4.99907330461
21 1 6 6 3.32778548384
21 1 6 7 5.76816150532
21 1 6 14 -3.32778548384
21 1 6 15 -5.76816150532
21 1 7 7 9.99814660922
21 1 7 14 -5.76816150532
21 1 7 15 -9.99814660922
21 1 14 14 3.32778548384
21 1 14 15 5.76816150532
21 1 15 15 9.99814660922
22 1 6 6 4.99167822576
22 1 6 7 8.65224225798
22 1 6 14 -4.99167822576
22 1 6 15 -8.65224225798
22 1 7 7 14.9972199138
22 1 7 14 -8.65224225798
22 1 7 15 -14.9972199138
22 1 14 14 4.99167822576
22 1 14 15 8.65224225798
22 1 15 15 14.9972199138
23 1 6 6 1.66389274192
23 1 6 7 -2.88408075266
23 1 6 16 -1.66389274192
23 1 6 17 2.88408075266
23 1 7 7 4.99907330461
23 1 7 16 2.88408075266
23 1 7 17 -4.99907330461
23 1 16 16 1.66389274192
23 1 16 17 -2.88408075266
23 1 17 17 4.99907330461
24 1 6 6 3.32778548384
24 1 6 7 -5.76816150532
24 1 6 16 -3.32778548384
24 1 6 17 5.76816150532
24 1 7 7 9.99814660922
24 1 7 16 5.76816150532
24 1 7 17 -9.99814660922
24 1 16 16 3.32778548384
24 1 16 17 -5.76816150532
24 1 17 17 9.99814660922
25 1 6 6 4.99167822576
25 1 6 7 -8.65224225798
25 1 6 16 -4.99167822576
25 1 6 17 8.65224225798
25 1 7 7 14.9972199138
25 1 7 16 8.65224225798
25 1 7 17 -14.9972199138
25 1 16 16 4.99167822576
25 1 16 17 -8.65224225798
25 1 17 17 14.9972199138
26 1 8 8 6.66666666667
26 1 8 10 -6.66666666667
26 1 10 10 6.66666666667
27 1 8 8 13.3333333333
27 1 8 10 -13.3333333333
27 1 10 10 13.3333333333
28 1 8 8 20.0
28 1 8 10 -20.0
28 1 10 10 20.0
29 1 8 8 1.66389274192
29 1 8 9 2.88408075266
29 1 8 16 -1.66389274192
29 1 8 17 -2.88408075266
29 1 9 9 4.99907330461
29 1 9 16 -2.88408075266
29 1 9 17 -4.99907330461
29 1 16 16 1.66389274192
29 1 16 17 2.88408075266
29 1 17 17 4.99907330461
30 1 8 8 3.32778548384
30 1 8 9 5.76816150532
30 1 8 16 -3.32778548384
30 1 8 17 -5.76816150532
30 1 9 9 9.99814660922
30 1 9 16 -5.76816150532
30 1 9 17 -9.99814660922
30 1 16 16 3.32778548384
30 1 16 17 5.76816150532
30 1 17 17 9.99814660922
31 1 8 8 4.99167822576
31 1 8 9 8.65224225798
31 1 8 16 -4.99167822576
31 1 8 17 -8.65224225798
31 1 9 9 14.9972199138
31 1 9 16 -8.65224225798
31 1 9 17 -14.9972199138
31 1 16 16 4.99167822576
31 1 16 17 8.65224225798
31 1 17 17 14.9972199138
32 1 8 8 1.66389274192
32 1 8 9 -2.88408075266
32 1 8 18 -1.66389274192
32 1 8 19 2.88408075266
32 1 9 9 4.99907330461
32 1 9 18 2.88408075266
32 1 9 19 -4.99907330461
32 1 18 18 1.66389274192
32 1 18 19 -2.88408075266
32 1 19 19 4.99907330461
33 1 8 8 3.32778548384
33 1 8 9 -5.76816150532
33 1 8 18 -3.32778548384
33 1 8 19 5.76816150532
33 1 9 9 9.99814660922
33 1 9 18 5.76816150532
33 1 9 19 -9.99814660922
33 1 18 18 3.32778548384
33 1 18 19 -5.76816150532
33 1 19 19 9.99814660922
34 1 8 8 4.99167822576
34 1 8 9 -8.65224225798
34 1 8 18 -4.99167822576
34 1 8 19 8.65224225798
34 1 9 9 14.9972199138
34 1 9 18 8.65224225798
34 1 9 19 -14.9972199138
34 1 18 18 4.99167822576
34 1 18 19 -8.65224225798
34 1 19 19 14.9972199138
35 1 10 10 1.66389274192
35 1 10 11 2.88408075266
35 1 10 18 -1.66389274192
35 1 10 19 -2.88408075266
35 1 11 11 4.99907330461
35 1 11 18 -2.88408075266
35 1 11 19 -4.99907330461
35 1 18 18 1.66389274192
35 1 18 19 2.88408075266
35 1 19 19 4.99907330461
36 1 10 10 3.32778548384
36 1 10 11 5.76816150532
36 1 10 18 -3.32778548384
36 1 10 19 -5.76816150532
36 1 11 11 9.99814660922
36 1 11 18 -5.76816150532
36 1 11 19 -9.99814660922
36 1 18 18 3.32778548384
36 1 18 19 5.76816150532
36 1 19 19 9.99814660922
37 1 10 10 4.99167822576
37 1 10 11 8.65224225798
37 1 10 18 -4.99167822576
37 1 10 19 -8.65224225798
37 1 11 11 14.9972199138
37 1 11 18 -8.65224225798
37 1 11 19 -14.9972199138
37 1 18 18 4.99167822576
37 1 18 19 8.65224225798
37 1 19 19 14.9972199138
38 1 12 12 6.66666666667
38 1 12 14 -6.66666666667
38 1 14 14 6.66666666667
39 1 12 12 13.3333333333
39 1 12 14 -13.3333333333
39 1 14 14 13.3333333333
40 1 12 12 20.0
40 1 12 14 -20.0
40 1 14 14 20.0
41 1 12 12 1.66389274192
41 1 12 13 -2.88408075266
41 1 12 20 -1.66389274192
41 1 12 21 2.88408075266
41 1 13 13 4.99907330461
41 1 13 20 2.88408075266
41 1 13 21 -4.99907330461
41 1 20 20 1.66389274192
41 1 20 21 -2.88408075266
41 1 21 21 4.99907330461
42 1 12 12 3.32778548384
42 1 12 13 -5.76816150532
42 1 12 20 -3.32778548384
42 1 12 21 5.76816150532
42 1 13 13 9.99814660922
42 1 13 20 5.76816150532
42 1 13 21 -9.99814660922
42 1 20 20 3.32778548384
42 1 20 21 -5.76816150532
42 1 21 21 9.99814660922
43 1 12 12 4.99167822576
43 1 12 13 -8.65224225798
43 1 12 20 -4.99167822576
43 1 12 21 8.65224225798
43 1 13 13 14.9972199138
43 1 13 20 8.65224225798
43 1 13 21 -14.9972199138
43 1 20 20 4.99167822576
43 1 20 21 -8.65224225798
43 1 21 21 14.9972199138
44 1 14 14 6.66666666667
44 1 14 16 -6.66666666667
44 1 16 16 6.66666666667
45 1 14 14 13.3333333333
45 1 14 16 -13.3333333333
45 1 16 16 13.3333333333
46 1 14 14 20.0
46 1 14 16 -20.0
46 1 16 16 20.0
47 1 14 14 1.66389274192
47 1 14 15 2.88408075266
47 1 14 20 -1.66389274192
47 1 14 21 -2.88408075266
47 1 15 15 4.99907330461
47 1 15 20 -2.88408075266
47 1 15 21 -4.99907330461
47 1 20 20 1.66389274192
47 1 20 21 2.88408075266
47 1 21 21 4.99907330461
48 1 14 14 3.32778548384
48 1 14 15 5.76816150532
48 1 14 20 -3.32778548384
48 1 14 21 -5.76816150532
48 1 15 15 9.99814660922
48 1 15 20 -5.76816150532
48 1 15 21 -9.99814660922
48 1 20 20 3.32778548384
48 1 20 21 5.76816150532
48 1 21 21 9.99814660922
49 1 14 14 4.99167822576
49 1 14 15 8.65224225798
49 1 14 20 -4.99167822576
49 1 14 21 -8.65224225798
49 1 15 15 14.9972199138
49 1 15 20 -8.65224225798
49 1 15 21 -14.9972199138
49 1 20 20 4.99167822576
49 1 20 21 8.65224225798
49 1 21 21 14.9972199138
50 1 14 14 1.66389274192
50 1 14 15 -2.88408075266
50 1 14 22 -1.66389274192
50 1 14 23 2.88408075266
50 1 15 15 4.99907330461
50 1 15 22 2.88408075266
50 1 15 23 -4.99907330461
50 1 22 22 1.66389274192
50 1 22 23 -2.88408075266
50 1 23 23 4.99907330461
51 1 14 14 3.32778548384
51 1 14 15 -5.76816150532
51 1 14 22 -3.32778548384
51 1 14 23 5.76816150532
51 1 15 15 9.99814660922
51 1 15 22 5.76816150532
51 1 15 23 -9.99814660922
51 1 22 22 3.32778548384
51 1 22 23 -5.76816150532
51 1 23 23 9.99814660922
52 1 14 14 4.99167822576
52 1 14 15 -8.65224225798
52 1 14 22 -4.99167822576
52 1 14 23 8.65224225798
52 1 15 15 14.9972199138
52 1 15 22 8.65224225798
52 1 15 23 -14.9972199138
52 1 22 22 4.99167822576
52 1 22 23 -8.65224225798
52 1 23 23 14.9972199138
53 1 16 16 6.66666666667
53 1 16 18 -6.66666666667
53 1 18 18 6.66666666667
54 1 16 16 13.3333333333
54 1 16 18 -13.3333333333
54 1 18 18 13.3333333333
55 1 16 16 20.0
55 1 16 18 -20.0
55 1 18 18 20.0
56 1 16 16 1.66389274192
56 1 16 17 2.88408075266
56 1 16 22 -1.66389274192
56 1 16 23 -2.88408075266
56 1 17 17 4.99907330461
56 1 17 22 -2.88408075266
56 1 17 23 -4.99907330461
56 1 22 22 1.66389274192
56 1 22 23 2.88408075266
56 1 23 23 4.99907330461
57 1 16 16 3.32778548384
57 1 16 17 5.76816150532
57 1 16 22 -3.32778548384
57 1 16 23 -5.76816150532
57 1 17 17 9.99814660922
57 1 17 22 -5.76816150532
57 1 17 23 -9.99814660922
57 1 22 22 3.32778548384
57 1 22 23 5.76816150532
57 1 23 23 9.99814660922
58 1 16 16 4.99167822576
58 1 16 17 8.65224225798
58 1 16 22 -4.99167822576
58 1 16 23 -8.65224225798
58 1 17 17 14.9972199138
58 1 17 22 -8.65224225798
58 1 17 23 -14.9972199138
58 1 22 22 4.99167822576
58 1 22 23 8.65224225798
58 1 23 23 14.9972199138
59 1 16 16 1.66389274192
59 1 16 17 -2.88408075266
59 1 16 24 -1.66389274192
59 1 16 25 2.88408075266
59 1 17 17 4.99907330461
59 1 17 24 2.88408075266
59 1 17 25 -4.99907330461
59 1 24 24 1.66389274192
59 1 24 25 -2.88408075266
59 1 25 25 4.99907330461
60 1 16 16 3.32778548384
60 1 16 17 -5.76816150532
60 1 16 24 -3.32778548384
60 1 16 25 5.76816150532
60 1 17 17 9.99814660922
60 1 17 24 5.76816150532
60 1 17 25 -9.99814660922
60 1 24 24 3.32778548384
60 1 24 25 -5.76816150532
60 1 25 25 9.99814660922
61 1 16 16 4.99167822576
61 1 16 17 -8.65224225798
61 1 16 24 -4.99167822576
61 1 16 25 8.65224225798
61 1 17 17 14.9972199138
61 1 17 24 8.65224225798
61 1 17 25 -14.9972199138
61 1 24 24 4.99167822576
61 1 24 25 -8.65224225798
61 1 25 25 14.9972199138
62 1 18 18 1.66389274192
62 1 18 19 2.88408075266
62 1 18 24 -1.66389274192
62 1 18 25 -2.88408075266
62 1 19 19 4.99907330461
62 1 19 24 -2.88408075266
62 1 19 25 -4.99907330461
62 1 24 24 1.66389274192
62 1 24 25 2.88408075266
62 1 25 25 4.99907330461
63 1 18 18 3.32778548384
63 1 18 19 5.76816150532
63 1 18 24 -3.32778548384
63 1 18 25 -5.76816150532
63 1 19 19 9.99814660922
63 1 19 24 -5.76816150532
63 1 19 25 -9.99814660922
63 1 24 24 3.32778548384
63 1 24 25 5.76816150532
63 1 25 25 9.99814660922
64 1 18 18 4.99167822576
64 1 18 19 8.65224225798
64 1 18 24 -4.99167822576
64 1 18 25 -8.65224225798
64 1 19 19 14.9972199138
64 1 19 24 -8.65224225798
64 1 19 25 -14.9972199138
64 1 24 24 4.99167822576
64 1 24 25 8.65224225798
64 1 25 25 14.9972199138
65 1 20 20 6.66666666667
65 1 20 22 -6.66666666667
65 1 22 22 6.66666666667
66 1 20 20 13.3333333333
66 1 20 22 -13.3333333333
66 1 22 22 13.3333333333
67 1 20 20 20.0
67 1 20 22 -20.0
67 1 22 22 20.0
68 1 20 20 1.66389274192
68 1 20 21 -2.88408075266
68 1 21 21 4.99907330461
69 1 20 20 3.32778548384
69 1 20 21 -5.76816150532
69 1 21 21 9.99814660922
70 1 20 20 4.99167822576
70 1 20 21 -8.65224225798
70 1 21 21 14.9972199138
71 1 22 22 6.66666666667
71 1 22 24 -6.66666666667
71 1 24 24 6.66666666667
72 1 22 22 13.3333333333
72 1 22 24 -13.3333333333
72 1 24 24 13.3333333333
73 1 22 22 20.0
73 1 22 24 -20.0
73 1 24 24 20.0
74 1 22 22 1.66389274192
74 1 22 23 2.88408075266
74 1 23 23 4.99907330461
75 1 22 22 3.32778548384
75 1 22 23 5.76816150532
75 1 23 23 9.99814660922
76 1 22 22 4.99167822576
76 1 22 23 8.65224225798
76 1 23 23 14.9972199138
77 1 22 22 1.66389274192
77 1 22 23 -2.88408075266
77 1 23 23 4.99907330461
78 1 22 22 3.32778548384
78 1 22 23 -5.76816150532
78 1 23 23 9.99814660922
79 1 22 22 4.99167822576
79 1 22 23 -8.65224225798
79 1 23 23 14.9972199138
80 1 24 24 1.66389274192
80 1 24 25 2.88408075266
80 1 25 25 4.99907330461
81 1 24 24 3.32778548384
81 1 24 25 5.76816150532
81 1 25 25 9.99814660922
82 1 24 24 4.99167822576
82 1 24 25 8.65224225798
82 1 25 25 14.9972199138
83 1 1 2 -1.0
83 1 1 4 1.0
84 1 1 2 -0.49972245349
84 1 1 12 0.49972245349
84 1 1 3 0.866185586049
84 1 1 13 -0.866185586049
85 1 1 4 -1.0
85 1 1 6 1.0
86 1 1 4 0.49972245349
86 1 1 12 -0.49972245349
86 1 1 5 0.866185586049
86 1 1 13 -0.866185586049
87 1 1 4 -0.49972245349
87 1 1 14 0.49972245349
87 1 1 5 0.866185586049
87 1 1 15 -0.866185586049
88 1 1 6 -1.0
88 1 1 8 1.0
89 1 1 6 0.49972245349
89 1 1 14 -0.49972245349
89 1 1 7 0.866185586049
89 1 1 15 -0.866185586049
90 1 1 6 -0.49972245349
90 1 1 16 0.49972245349
90 1 1 7 0.866185586049
90 1 1 17 -0.866185586049
91 1 1 8 -1.0
91 1 1 10 1.0
92 1 1 8 0.49972245349
92 1 1 16 -0.49972245349
92 1 1 9 0.866185586049
92 1 1 17 -0.866185586049
93 1 1 8 -0.49972245349
93 1 1 18 0.49972245349
93 1 1 9 0.866185586049
93 1 1 19 -0.866185586049
94 1 1 10 0.49972245349
94 1 1 18 -0.49972245349
94 1 1 11 0.866185586049
94 1 1 19 -0.866185586049
95 1 1 12 -1.0
95 1 1 14 1.0
96 1 1 12 -0.49972245349
96 1 1 20 0.49972245349
96 1 1 13 0.866185586049
96 1 1 21 -0.866185586049
97 1 1 14 -1.0
97 1 1 16 1.0
98 1 1 14 0.49972245349
98 1 1 20 -0.49972245349
98 1 1 15 0.866185586049
98 1 1 21 -0.866185586049
99 1 1 14 -0.49972245349
99 1 1 22 0.49972245349
99 1 1 15 0.866185586049
99 1 1 23 -0.866185586049
100 1 1 16 -1.0
100 1 1 18 1.0
101 1 1 16 0.49972245349
101 1 1 22 -0.49972245349
101 1 1 17 0.866185586049
101 1 1 23 -0.866185586049
102 1 1 16 -0.49972245349
102 1 1 24 0.49972245349
102 1 1 17 0.866185586049
102 1 1 25 -0.866185586049
103 1 1 18 0.49972245349
103 1 1 24 -0.49972245349
103 1 1 19 0.866185586049
103 1 1 25 -0.866185586049
104 1 1 20 -1.0
104 1 1 22 1.0
105 1 1 20 -0.49972245349
105 1 1 21 0.866185586049
106 1 1 22 -1.0
106 1 1 24 1.0
107 1 1 22 0.49972245349
107 1 1 23 0.866185586049
108 1 1 22 -0.49972245349
108 1 1 23 0.866185586049
109 1 1 24 0.49972245349
109 1 1 25 0.866185586049
0 2 1 1 -10000.0
1 2 1 1 -1.0
2 2 2 2 1.0
3 2 3 3 1.0
4 2 4 4 1.0
5 2 5 5 1.0
6 2 6 6 1.0
7 2 7 7 1.0
8 2 8 8 1.0
9 2 9 9 1.0
10 2 10 10 1.0
11 2 11 11 1.0
12 2 12 12 1.0
13 2 13 13 1.0
14 2 14 14 1.0
15 2 15 15 1.0
16 2 16 16 1.0
17 2 17 17 1.0
18 2 18 18 1.0
19 2 19 19 1.0
20 2 20 20 1.0
21 2 21 21 1.0
22 2 22 22 1.0
23 2 23 23 1.0
24 2 24 24 1.0
25 2 25 25 1.0
26 2 26 26 1.0
27 2 27 27 1.0
28 2 28 28 1.0
29 2 29 29 1.0
30 2 30 30 1.0
31 2 31 31 1.0
32 2 32 32 1.0
33 2 33 33 1.0
34 2 34 34 1.0
35 2 35 35 1.0
36 2 36 36 1.0
37 2 37 37 1.0
38 2 38 38 1.0
39 2 39 39 1.0
40 2 40 40 1.0
41 2 41 41 1.0
42 2 42 42 1.0
43 2 43 43 1.0
44 2 44 44 1.0
45 2 45 45 1.0
46 2 46 46 1.0
47 2 47 47 1.0
48 2 48 48 1.0
49 2 49 49 1.0
50 2 50 50 1.0
51 2 51 51 1.0
52 2 52 52 1.0
53 2 53 53 1.0
54 2 54 54 1.0
55 2 55 55 1.0
56 2 56 56 1.0
57 2 57 57 1.0
58 2 58 58 1.0
59 2 59 59 1.0
60 2 60 60 1.0
61 2 61 61 1.0
62 2 62 62 1.0
63 2 63 63 1.0
64 2 64 64 1.0
65 2 65 65 1.0
66 2 66 66 1.0
67 2 67 67 1.0
68 2 68 68 1.0
69 2 69 69 1.0
70 2 70 70 1.0
71 2 71 71 1.0
72 2 72 72 1.0
73 2 73 73 1.0
74 2 74 74 1.0
75 2 75 75 1.0
76 2 76 76 1.0
77 2 77 77 1.0
78 2 78 78 1.0
79 2 79 79 1.0
80 2 80 80 1.0
81 2 81 81 1.0
82 2 82 82 1.0
0 2 83 83 -1.0
2 2 83 83 -1.0
0 2 84 84 -1.0
3 2 84 84 -1.0
0 2 85 85 -1.0
4 2 85 85 -1.0
0 2 86 86 -1.0
5 2 86 86 -1.0
0 2 87 87 -1.0
6 2 87 87 -1.0
0 2 88 88 -1.0
7 2 88 88 -1.0
0 2 89 89 -1.0
8 2 89 89 -1.0
0 2 90 90 -1.0
9 2 90 90 -1.0
0 2 91 91 -1.0
10 2 91 91 -1.0
0 2 92 92 -1.0
11 2 92 92 -1.0
0 2 93 93 -1.0
12 2 93 93 -1.0
0 2 94 94 -1.0
13 2 94 94 -1.0
0 2 95 95 -1.0
14 2 95 95 -1.0
0 2 96 96 -1.0
15 2 96 96 -1.0
0 2 97 97 -1.0
16 2 97 97 -1.0
0 2 98 98 -1.0
17 2 98 98 -1.0
0 2 99 99 -1.0
18 2 99 99 -1.0
0 2 100 100 -1.0
19 2 100 100 -1.0
0 2 101 101 -1.0
20 2 101 101 -1.0
0 2 102 102 -1.0
21 2 102 102 -1.0
0 2 103 103 -1.0
22 2 103 103 -1.0
0 2 104 104 -1.0
23 2 104 104 -1.0
0 2 105 105 -1.0
24 2 105 105 -1.0
0 2 106 106 -1.0
25 2 106 106 -1.0
0 2 107 107 -1.0
26 2 107 107 -1.0
0 2 108 108 -1.0
27 2 108 108 -1.0
0 2 109 109 -1.0
28 2 109 109 -1.0
0 2 110 110 -1.0
29 2 110 110 -1.0
0 2 111 111 -1.0
30 2 111 111 -1.0
0 2 112 112 -1.0
31 2 112 112 -1.0
0 2 113 113 -1.0
32 2 113 113 -1.0
0 2 114 114 -1.0
33 2 114 114 -1.0
0 2 115 115 -1.0
34 2 115 115 -1.0
0 2 116 116 -1.0
35 2 116 116 -1.0
0 2 117 117 -1.0
36 2 117 117 -1.0
0 2 118 118 -1.0
37 2 118 118 -1.0
0 2 119 119 -1.0
38 2 119 119 -1.0
0 2 120 120 -1.0
39 2 120 120 -1.0
0 2 121 121 -1.0
40 2 121 121 -1.0
0 2 122 122 -1.0
41 2 122 122 -1.0
0 2 123 123 -1.0
42 2 123 123 -1.0
0 2 124 124 -1.0
43 2 124 124 -1.0
0 2 125 125 -1.0
44 2 125 125 -1.0
0 2 126 126 -1.0
45 2 126 126 -1.0
0 2 127 127 -1.0
46 2 127 127 -1.0
0 2 128 128 -1.0
47 2 128 128 -1.0
0 2 129 129 -1.0
48 2 129 129 -1.0
0 2 130 130 -1.0
49 2 130 130 -1.0
0 2 131 131 -1.0
50 2 131 131 -1.0
0 2 132 132 -1.0
51 2 132 132 -1.0
0 2 133 133 -1.0
52 2 133 133 -1.0
0 2 134 134 -1.0
53 2 134 134 -1.0
0 2 135 135 -1.0
54 2 135 135 -1.0
0 2 136 136 -1.0
55 2 136 136 -1.0
0 2 137 137 -1.0
56 2 137 137 -1.0
0 2 138 138 -1.0
57 2 138 138 -1.0
0 2 139 139 -1.0
58 2 139 139 -1.0
0 2 140 140 -1.0
59 2 140 140 -1.0
0 2 141 141 -1.0
60 2 141 141 -1.0
0 2 142 142 -1.0
61 2 142 142 -1.0
0 2 143 143 -1.0
62 2 143 143 -1.0
0 2 144 144 -1.0
63 2 144 144 -1.0
0 2 145 145 -1.0
64 2 145 145 -1.0
0 2 146 146 -1.0
65 2 146 146 -1.0
0 2 147 147 -1.0
66 2 147 147 -1.0
0 2 148 148 -1.0
67 2 148 148 -1.0
0 2 149 149 -1.0
68 2 149 149 -1.0
0 2 150 150 -1.0
69 2 150 150 -1.0
0 2 151 151 -1.0
70 2 151 151 -1.0
0 2 152 152 -1.0
71 2 152 152 -1.0
0 2 153 153 -1.0
72 2 153 153 -1.0
0 2 154 154 -1.0
73 2 154 154 -1.0
0 2 155 155 -1.0
74 2 155 155 -1.0
0 2 156 156 -1.0
75 2 156 156 -1.0
0 2 157 157 -1.0
76 2 157 157 -1.0
0 2 158 158 -1.0
77 2 158 158 -1.0
0 2 159 159 -1.0
78 2 159 159 -1.0
0 2 160 160 -1.0
79 2 160 160 -1.0
0 2 161 161 -1.0
80 2 161 161 -1.0
0 2 162 162 -1.0
81 2 162 162 -1.0
0 2 163 163 -1.0
82 2 163 163 -1.0
0 2 164 164 -1.0
2 2 164 164 -1.0
3 2 164 164 -1.0
4 2 164 164 -1.0
0 2 165 165 -1.0
5 2 165 165 -1.0
6 2 165 165 -1.0
7 2 165 165 -1.0
0 2 166 166 -1.0
8 2 166 166 -1.0
9 2 166 166 -1.0
10 2 166 166 -1.0
0 2 167 167 -1.0
11 2 167 167 -1.0
12 2 167 167 -1.0
13 2 167 167 -1.0
0 2 168 168 -1.0
14 2 168 168 -1.0
15 2 168 168 -1.0
16 2 168 168 -1.0
0 2 169 169 -1.0
17 2 169 169 -1.0
18 2 169 169 -1.0
19 2 169 169 -1.0
0 2 170 170 -1.0
20 2 170 170 -1.0
21 2 170 170 -1.0
22 2 170 170 -1.0
0 2 171 171 -1.0
23 2 171 171 -1.0
24 2 171 171 -1.0
25 2 171 171 -1.0
0 2 172 172 -1.0
26 2 172 172 -1.0
27 2 172 172 -1.0
28 2 172 172 -1.0
0 2 173 173 -1.0
29 2 173 173 -1.0
30 2 173 173 -1.0
31 2 173 173 -1.0
0 2 174 174 -1.0
32 2 174 174 -1.0
33 2 174 174 -1.0
34 2 174 174 -1.0
0 2 175 175 -1.0
35 2 175 175 -1.0
36 2 175 175 -1.0
37 2 175 175 -1.0
0 2 176 176 -1.0
38 2 176 176 -1.0
39 2 176 176 -1.0
40 2 176 176 -1.0
0 2 177 177 -1.0
41 2 177 177 -1.0
42 2 177 177 -1.0
43 2 177 177 -1.0
0 2 178 178 -1.0
44 2 178 178 -1.0
45 2 178 178 -1.0
46 2 178 178 -1.0
0 2 179 179 -1.0
47 2 179 179 -1.0
48 2 179 179 -1.0
49 2 179 179 -1.0
0 2 180 180 -1.0
50 2 180 180 -1.0
51 2 180 180 -1.0
52 2 180 180 -1.0
0 2 181 181 -1.0
53 2 181 181 -1.0
54 2 181 181 -1.0
55 2 181 181 -1.0
0 2 182 182 -1.0
56 2 182 182 -1.0
57 2 182 182 -1.0
58 2 182 182 -1.0
0 2 183 183 -1.0
59 2 183 183 -1.0
60 2 183 183 -1.0
61 2 183 183 -1.0
0 2 184 184 -1.0
62 2 184 184 -1.0
63 2 184 184 -1.0
64 2 184 184 -1.0
0 2 185 185 -1.0
65 2 185 185 -1.0
66 2 185 185 -1.0
67 2 185 185 -1.0
0 2 186 186 -1.0
68 2 186 186 -1.0
69 2 186 186 -1.0
70 2 186 186 -1.0
0 2 187 187 -1.0
71 2 187 187 -1.0
72 2 187 187 -1.0
73 2 187 187 -1.0
0 2 188 188 -1.0
74 2 188 188 -1.0
75 2 188 188 -1.0
76 2 188 188 -1.0
0 2 189 189 -1.0
77 2 189 189 -1.0
78 2 189 189 -1.0
79 2 189 189 -1.0
0 2 190 190 -1.0
80 2 190 190 -1.0
81 2 190 190 -1.0
82 2 190 190 -1.0
2 2 191 191 1.0
3 2 191 191 1.0
4 2 191 191 1.0
110 2 191 191 -1.0
5 2 192 192 1.0
6 2 192 192 1.0
7 2 192 192 1.0
111 2 192 192 -1.0
8 2 193 193 1.0
9 2 193 193 1.0
10 2 193 193 1.0
112 2 193 193 -1.0
11 2 194 194 1.0
12 2 194 194 1.0
13 2 194 194 1.0
113 2 194 194 -1.0
14 2 195 195 1.0
15 2 195 195 1.0
16 2 195 195 1.0
114 2 195 195 -1.0
17 2 196 196 1.0
18 2 196 196 1.0
19 2 196 196 1.0
115 2 196 196 -1.0
20 2 197 197 1.0
21 2 197 197 1.0
22 2 197 197 1.0
116 2 197 197 -1.0
23 2 198 198 1.0
24 2 198 198 1.0
25 2 198 198 1.0
117 2 198 198 -1.0
26 2 199 199 1.0
27 2 199 199 1.0
28 2 199 199 1.0
118 2 199 199 -1.0
29 2 200 200 1.0
30 2 200 200 1.0
31 2 200 200 1.0
119 2 200 200 -1.0
32 2 201 201 1.0
33 2 201 201 1.0
34 2 201 201 1.0
120 2 201 201 -1.0
35 2 202 202 1.0
36 2 202 202 1.0
37 2 202 202 1.0
121 2 202 202 -1.0
38 2 203 203 1.0
39 2 203 203 1.0
40 2 203 203 1.0
122 2 203 203 -1.0
41 2 204 204 1.0
42 2 204 204 1.0
43 2 204 204 1.0
123 2 204 204 -1.0
44 2 205 205 1.0
45 2 205 205 1.0
46 2 205 205 1.0
124 2 205 205 -1.0
47 2 206 206 1.0
48 2 206 206 1.0
49 2 206 206 1.0
125 2 206 206 -1.0
50 2 207 207 1.0
51 2 207 207 1.0
52 2 207 207 1.0
126 2 207 207 -1.0
53 2 208 208 1.0
54 2 208 208 1.0
55 2 208 208 1.0
127 2 208 208 -1.0
56 2 209 209 1.0
57 2 209 209 1.0
58 2 209 209 1.0
128 2 209 209 -1.0
59 2 210 210 1.0
60 2 210 210 1.0
61 2 210 210 1.0
129 2 210 210 -1.0
62 2 211 211 1.0
63 2 211 211 1.0
64 2 211 211 1.0
130 2 211 211 -1.0
65 2 212 212 1.0
66 2 212 212 1.0
67 2 212 212 1.0
131 2 212 212 -1.0
68 2 213 213 1.0
69 2 213 213 1.0
70 2 213 213 1.0
132 2 213 213 -1.0
71 2 214 214 1.0
72 2 214 214 1.0
73 2 214 214 1.0
133 2 214 214 -1.0
74 2 215 215 1.0
75 2 215 215 1.0
76 2 215 215 1.0
134 2 215 215 -1.0
77 2 216 216 1.0
78 2 216 216 1.0
79 2 216 216 1.0
135 2 216 216 -1.0
80 2 217 217 1.0
81 2 217 217 1.0
82 2 217 217 1.0
136 2 217 217 -1.0
83 2 218 218 -1.0
2 2 218 218 2.01077199282
2 2 218 218 3.80305602716
2 2 218 218 5.41062801932
84 2 219 219 -1.0
3 2 219 219 2.00971991818
3 2 219 219 3.80117424783
3 2 219 219 5.40808869357
85 2 220 220 -1.0
4 2 220 220 2.01077199282
4 2 220 220 3.80305602716
4 2 220 220 5.41062801932
86 2 221 221 -1.0
5 2 221 221 2.00971991818
5 2 221 221 3.80117424783
5 2 221 221 5.40808869357
87 2 222 222 -1.0
6 2 222 222 2.00971991818
6 2 222 222 3.80117424783
6 2 222 222 5.40808869357
88 2 223 223 -1.0
7 2 223 223 2.01077199282
7 2 223 223 3.80305602716
7 2 223 223 5.41062801932
89 2 224 224 -1.0
8 2 224 224 2.00971991818
8 2 224 224 3.80117424783
8 2 224 224 5.40808869357
90 2 225 225 -1.0
9 2 225 225 2.00971991818
9 2 225 225 3.80117424783
9 2 225 225 5.40808869357
91 2 226 226 -1.0
10 2 226 226 2.01077199282
10 2 226 226 3.80305602716
10 2 226 226 5.41062801932
92 2 227 227 -1.0
11 2 227 227 2.00971991818
11 2 227 227 3.80117424783
11 2 227 227 5.40808869357
93 2 228 228 -1.0
12 2 228 228 2.00971991818
12 2 228 228 3.80117424783
12 2 228 228 5.40808869357
94 2 229 229 -1.0
13 2 229 229 2.00971991818
13 2 229 229 3.80117424783
13 2 229 229 5.40808869357
95 2 230 230 -1.0
14 2 230 230 2.01077199282
14 2 230 230 3.80305602716
14 2 230 230 5.41062801932
96 2 231 231 -1.0
15 2 231 231 2.00971991818
15 2 231 231 3.80117424783
15 2 231 231 5.40808869357
97 2 232 232 -1.0
16 2 232 232 2.01077199282
16 2 232 232 3.80305602716
16 2 232 232 5.41062801932
98 2 233 233 -1.0
17 2 233 233 2.00971991818
17 2 233 233 3.80117424783
17 2 233 233 5.40808869357
99 2 234 234 -1.0
18 2 234 234 2.00971991818
18 2 234 234 3.80117424783
18 2 234 234 5.40808869357
100 2 235 235 -1.0
19 2 235 235 2.01077199282
19 2 235 235 3.80305602716
19 2 235 235 5.41062801932
101 2 236 236 -1.0
20 2 236 236 2.00971991818
20 2 236 236 3.80117424783
20 2 236 236 5.40808869357
102 2 237 237 -1.0
21 2 237 237 2.00971991818
21 2 237 237 3.80117424783
21 2 237 237 5.40808869357
103 2 238 238 -1.0
22 2 238 238 2.00971991818
22 2 238 238 3.80117424783
22 2 238 238 5.40808869357
104 2 239 239 -1.0
23 2 239 239 2.01077199282
23 2 239 239 3.80305602716
23 2 239 239 5.41062801932
105 2 240 240 -1.0
24 2 240 240 2.00971991818
24 2 240 240 3.80117424783
24 2 240 240 5.40808869357
106 2 241 241 -1.0
25 2 241 241 2.01077199282
25 2 241 241 3.80305602716
25 2 241 241 5.41062801932
107 2 242 242 -1.0
26 2 242 242 2.00971991818
26 2 242 242 3.80117424783
26 2 242 242 5.40808869357
108 2 243 243 -1.0
27 2 243 243 2.00971991818
27 2 243 243 3.80117424783
27 2 243 243 5.40808869357
109 2 244 244 -1.0
28 2 244 244 2.00971991818
28 2 244 244 3.80117424783
28 2 244 244 5.40808869357
83 2 245 245 1.0
84 2 246 246 1.0
85 2 247 247 1.0
86 2 248 248 1.0
87 2 249 249 1.0
88 2 250 250 1.0
89 2 251 251 1.0
90 2 252 252 1.0
91 2 253 253 1.0
92 2 254 254 1.0
93 2 255 255 1.0
94 2 256 256 1.0
95 2 257 257 1.0
96 2 258 258 1.0
97 2 259 259 1.0
98 2 260 260 1.0
99 2 261 261 1.0
100 2 262 262 1.0
101 2 263 263 1.0
102 2 264 264 1.0
103 2 265 265 1.0
104 2 266 266 1.0
105 2 267 267 1.0
106 2 268 268 1.0
107 2 269 269 1.0
108 2 270 270 1.0
109 2 271 271 1.0
83 2 272 272 -1.0
110 2 272 272 5.41062801932
84 2 273 273 -1.0
111 2 273 273 5.40808869357
85 2 274 274 -1.0
112 2 274 274 5.41062801932
86 2 275 275 -1.0
113 2 275 275 5.40808869357
87 2 276 276 -1.0
114 2 276 276 5.40808869357
88 2 277 277 -1.0
115 2 277 277 5.41062801932
89 2 278 278 -1.0
116 2 278 278 5.40808869357
90 2 279 279 -1.0
117 2 279 279 5.40808869357
91 2 280 280 -1.0
118 2 280 280 5.41062801932
92 2 281 281 -1.0
119 2 281 281 5.40808869357
93 2 282 282 -1.0
120 2 282 282 5.40808869357
94 2 283 283 -1.0
121 2 283 283 5.40808869357
95 2 284 284 -1.0
122 2 284 284 5.41062801932
96 2 285 285 -1.0
123 2 285 285 5.40808869357
97 2 286 286 -1.0
124 2 286 286 5.41062801932
98 2 287 287 -1.0
125 2 287 287 5.40808869357
99 2 288 288 -1.0
126 2 288 288 5.40808869357
100 2 289 289 -1.0
127 2 289 289 5.41062801932
101 2 290 290 -1.0
128 2 290 290 5.40808869357
102 2 291 291 -1.0
129 2 291 291 5.40808869357
103 2 292 292 -1.0
130 2 292 292 5.40808869357
104 2 293 293 -1.0
131 2 293 293 5.41062801932
105 2 294 294 -1.0
132 2 294 294 5.40808869357
106 2 295 295 -1.0
133 2 295 295 5.41062801932
107 2 296 296 -1.0
134 2 296 296 5.40808869357
108 2 297 297 -1.0
135 2 297 297 5.40808869357
109 2 298 298 -1.0
136 2 298 298 5.40808869357
110 2 299 299 1.0
111 2 300 300 1.0
112 2 301 301 1.0
113 2 302 302 1.0
114 2 303 303 1.0
115 2 304 304 1.0
116 2 305 305 1.0
117 2 306 306 1.0
118 2 307 307 1.0
119 2 308 308 1.0
120 2 309 309 1.0
121 2 310 310 1.0
122 2 311 311 1.0
123 2 312 312 1.0
124 2 313 313 1.0
125 2 314 314 1.0
126 2 315 315 1.0
127 2 316 316 1.0
128 2 317 317 1.0
129 2 318 318 1.0
130 2 319 319 1.0
131 2 320 320 1.0
132 2 321 321 1.0
133 2 322 322 1.0
134 2 323 323 1.0
135 2 324 324 1.0
136 2 325 325 1.0
0 2 326 326 -1.0
110 2 326 326 -1.0
0 2 327 327 -1.0
111 2 327 327 -1.0
0 2 328 328 -1.0
112 2 328 328 -1.0
0 2 329 329 -1.0
113 2 329 329 -1.0
0 2 330 330 -1.0
114 2 330 330 -1.0
0 2 331 331 -1.0
115 2 331 331 -1.0
0 2 332 332 -1.0
116 2 332 332 -1.0
0 2 333 333 -1.0
117 2 333 333 -1.0
0 2 334 334 -1.0
118 2 334 334 -1.0
0 2 335 335 -1.0
119 2 335 335 -1.0
0 2 336 336 -1.0
120 2 336 336 -1.0
0 2 337 337 -1.0
121 2 337 337 -1.0
0 2 338 338 -1.0
122 2 338 338 -1.0
0 2 339 339 -1.0
123 2 339 339 -1.0
0 2 340 340 -1.0
124 2 340 340 -1.0
0 2 341 341 -1.0
125 2 341 341 -1.0
0 2 342 342 -1.0
126 2 342 342 -1.0
0 2 343 343 -1.0
127 2 343 343 -1.0
0 2 344 344 -1.0
128 2 344 344 -1.0
0 2 345 345 -1.0
129 2 345 345 -1.0
0 2 346 346 -1.0
130 2 346 346 -1.0
0 2 347 347 -1.0
131 2 347 347 -1.0
0 2 348 348 -1.0
132 2 348 348 -1.0
0 2 349 349 -1.0
133 2 349 349 -1.0
0 2 350 350 -1.0
134 2 350 350 -1.0
0 2 351 351 -1.0
135 2 351 351 -1.0
0 2 352 352 -1.0
136 2 352 352 -1.0
0 2 353 353 -4.0
110 2 353 353 -1.0
111 2 353 353 -1.0
112 2 353 353 -1.0
113 2 353 353 -1.0
114 2 353 353 -1.0
115 2 353 353 -1.0
116 2 353 353 -1.0
117 2 353 353 -1.0
118 2 353 353 -1.0
119 2 353 353 -1.0
120 2 353 353 -1.0
121 2 353 353 -1.0
122 2 353 353 -1.0
123 2 353 353 -1.0
124 2 353 353 -1.0
125 2 353 353 -1.0
126 2 353 353 -1.0
127 2 353 353 -1.0
128 2 353 353 -1.0
129 2 353 353 -1.0
130 2 353 353 -1.0
131 2 353 353 -1.0
132 2 353 353 -1.0
133 2 353 353 -1.0
134 2 353 353 -1.0
135 2 353 353 -1.0
136 2 353 353 -1.0
*INTEGERS*
*2
*3
*4
*5
*6
*7
*8
*9
*10
*11
*12
*13
*14
*15
*16
*17
*18
*19
*20
*21
*22
*23
*24
*25
*26
*27
*28
*29
*30
*31
*32
*33
*34
*35
*36
*37
*38
*39
*40
*41
*42
*43
*44
*45
*46
*47
*48
*49
*50
*51
*52
*53
*54
*55
*56
*57
*58
*59
*60
*61
*62
*63
*64
*65
*66
*67
*68
*69
*70
*71
*72
*73
*74
*75
*76
*77
*78
*79
*80
*81
*82
*110
*111
*112
*113
*114
*115
*116
*117
*118
*119
*120
*121
*122
*123
*124
*125
*126
*127
*128
*129
*130
*131
*132
*133
*134
*135
*136
